examples/data/binpacking/Istanze/BPPC_5_3_4.txt
60 1000
1 378 3 19 20 26 28 42 48
2 275 3 7 9 13 16 18 19 20 23 26 28 36 42 48 52 53 55 58 59
3 347 5 7 9 13 16 18 19 20 23 26 28 30 36 42 46 48 52 53 54 55 58 59
4 462
5 261 19 28 42
6 277 19 28 42
7 429 9 13 16 18 19 20 26 28 36 42 48 52 53 55 58
8 273
9 298 13 16 18 19 20 23 26 28 30 36 42 46 48 52 53 55 58 59
10 495
11 250 19 28
12 255
13 371 18 19 20 26 28 36 42 48 52 53 58
14 262 19 28
15 367
16 391 18 19 20 26 28 36 42 48 52 53 55 58
17 293
18 316 19 20 26 28 36 42 48 52 53 55 58
19 493 20 23 26 28 30 36 42 43 46 48 52 53 54 55 58 59
20 252 23 26 28 30 36 42 46 48 52 53 54 55 58 59
21 255
22 405
23 250 26 28 42 48 52 53 58
24 345
25 461
26 258 28 30 36 42 46 48 52 53 55 58 59
27 281
28 478 30 36 42 43 46 48 52 53 54 55 58 59
29 257
30 265 42 48 52 53 58
31 354
32 278
33 368
34 451
35 256
36 293 42 48 52 53 55 58
37 485
38 254
39 261
40 477
41 258
42 265 46 48 52 53 54 55 58 59
43 369
44 270
45 361
46 375 48 52 58
47 268
48 357 52 53 55 58 59
49 414
50 254
51 332
52 459 53 55 58 59
53 263 55 58 59
54 278
55 456 58
56 263
57 281
58 426 59
59 277
60 297
